1000 1895
1 2 3 4 5 6 7 8 9 10 11 12 13 14 15 16 17 18 19 20 21 22 23 24 25
0 26 27 28 29 30 31 32 33 34 35 36 37 38 39 40 41 42 43 44 45 46 47 48 49 50 51 52 53 54 55 56 57 58 59 60 61 62 63 64 65 66 67 68 69 70 71 72 73 74 75 76 77 78 79 80 81 82 83 84 85 86 87 88 89 90 91 92 93 94 95 96 97 98 99 100 101 102 103 104 105 106 107 108 109 110 111 112 113 114 115 116 117 118
0 6 28 119 120 121 122 123 124 125 126 127 128 129 130 131 132 133 134 135 136 137 138 139 140 141 142 143 144 145 146 147 148 149 150 151 152 153 154 155 156 157 158
0 159 160 161 162 163 164 165 166 167 168 169 170 171 172 173 174 175 176 177 178 179 180 181 182 183 184 185 186 187 188 189 190 191 192 193 194 195
0 196 197 198 199 200 201 202 203 204 205 206 207 208 209 210 211 212 213 214 215 216 217 218 219 220 221 222 223 224 225 226 227 228 229 230 231 232 233 234 235 236
0 103 237 238 239 240 241 242 243 244 245 246 247 248 249 250 251 252 253 254 255 256 257 258 259 260 261 262 263 264 265 266 267 268 269 270 271 272 273 274 275 276 277 278 279 280 281 282 283 284 285 286 287 288 289 290 291 292 293 294 295 296 297 298 299 300 301 302 303 304 305 306 307 308 309 310 311 312 313 314 315 316 317 318 319 320 321 322 323 324 325 326 327 328 329 330 331 332 333 334 335 336 337 338 339 340 341 342 343 344 345 346 347 348 349 350 351 352 353 354 355 356 357 358 359 360
0 2 27 39 124 127 130 149 153 258 277 361 362 363 364 365 366 367 368 369 370 371 372 373 374 375 376 377 378 379 380 381 382
0 383 384 385 386 387 388 389 390 391 392 393 394 395 396 397 398 399 400 401 402 403 404 405 406 407 408 409 410 411 412 413 414 415 416 417 418 419 420 421 422 423 424 425 426 427 428 429 430 431 432 433 434 435 436 437 438 439 440 441 442 443 444 445 446 447 448 449 450 451 452 453 454 455 456 457 458 459 460 461 462 463 464 465 466 467 468 469 470 471 472 473 474 475 476 477 478 479 480 481 482 483 484 485 486 487 488 489 490 491 492 493 494 495 496 497 498 499 500 501 502 503 504 505 506 507 508 509 510 511 512 513 514 515 516
0 517 518 519 520 521 522 523 524 525 526 527 528 529 530 531 532 533 534 535 536 537 538 539 540 541 542 543 544 545 546 547 548 549 550 551 552 553 554 555 556 557 558 559 560 561 562 563 564 565 566 567 568 569 570 571 572 573 574 575 576 577 578 579 580 581 582 583 584
0 585 586 587 588 589 590 591 592 593 594 595 596 597 598 599 600 601 602 603 604 605 606 607 608 609 610 611 612 613 614 615 616 617 618 619 620 621 622 623 624 625 626 627 628 629 630 631 632 633 634 635 636 637 638 639 640 641 642 643 644 645 646
0 647 648 649 650 651 652 653 654 655 656 657 658 659 660 661 662 663 664 665 666 667 668 669 670 671 672 673 674 675 676 677 678 679 680 681
0 94 105 682 683 684 685 686 687 688 689 690 691 692 693 694 695 696 697 698 699 700 701 702 703 704 705 706 707 708 709 710 711 712 713 714 715 716 717 718 719 720 721 722 723 724 725 726 727 728 729 730 731 732 733 734 735 736 737 738 739 740 741 742 743 744 745 746 747 748 749 750 751 752 753 754 755 756 757 758 759 760 761 762 763 764 765 766 767 768 769 770 771 772 773 774 775
0 776 777 778 779 780 781 782 783 784 785 786 787 788 789 790 791 792 793 794 795 796 797 798 799 800 801 802 803 804 805 806 807 808 809 810 811 812 813 814 815 816 817 818 819 820 821 822
0 31 39 84 124 366 369 823 824 825 826 827 828 829 830 831 832 833 834 835 836 837 838 839 840 841 842 843 844 845 846 847 848 849 850 851 852 853 854 855 856 857 858 859 860 861 862 863 864 865 866 867 868 869 870 871 872 873 874 875 876 877 878 879 880 881 882 883 884 885 886 887 888 889 890 891 892 893 894 895 896 897 898
0 18 28 39 57 84 94 106 119 121 122 138 139 152 155 275 324 333 364 370 371 373 380 382 689 721 737 827 843 846 874 881 883 894 899 900 901 902 903 904 905 906 907 908 909 910 911 912 913 914 915 916 917 918 919 920 921 922 923 924 925 926 927 928 929 930 931 932 933 934 935 936 937 938 939 940 941 942 943 944 945 946 947 948 949 950 951 952 953 954 955 956 957 958 959 960 961 962 963 964 965 966 967 968 969 970 971 972 973 974 975 976 977 978 979 980 981 982 983 984 985 986 987 988 989 990 991 992 993 994 995 996 997 998 999
0
0 44 103 113 114 362 965
0
0 14 28 57 84 119 121 122 124 125 129 152 155 382 689 715 737 827 841 843 870 881 896 901 902 908 915 918 919 920 923 925 926 930 931 939 940 941 951 955 960 961 964 965 968 969 970 972 973 976 978 989 990 998
0
0 29 117 422 741 960
0 225 382 531 830
0
0 51
0 287 300 338
0
1
1 6 42 130
1 2 14 18
1 20
1
1 13
1 69
1
1 58 89 97
1 74 101
1 41 746
1 48 60
1
1 6 13 14
1
1 36 83 90 96 997
1 27 62 83
1 92
1 16
1 55 60
1
1
1 37 50 66 69 99
1
1 48 66 69 79 99
1 23 69
1
1 726
1 89
1 45
1
1 14 18
1 34
1
1 37 45
1
1 42 83 100 101 104
1 700
1
1
1 48 50 79 99
1
1 98
1 32 48 50 51 79
1
1
1
1 624
1 35
1
1
1
1
1 50 66 69
1 106
1 83 96 100 104 116
1
1 41 42 62 81 96 101 104
1 13 14 18
1
1
1
1 997
1 34 54 726
1 41
1
1 43
1
1 11 14 114
1 107
1 41 81 83 101
1 34
1 68 113 124 125 196 308 339 379 382 894 896 903 970 976
1 48 50 66
1 62 81 101
1 35 62 83 96 100 104
1 114
1 5 16
1 62 81 83 101
1 11 114
1 14 80 755
1 95
1
1
1
1
1
1 16 98 824
1 16 94 102 105 126 883 888
1
1 81
1 20
1
2 14 18
2
2 14 18
2 14 18 130 933
2
2 6 13 18 98
2 18 98
2 114
2 6
2
2 18
2 6 27 122 144 296 371 372 733 874 903 946
2
2 146
2
2
2
2
2
2 14
2 14
2
2
2
2
2 130
2
2 132 153 325 366 950
2
2
2 6
2
2 281
2 14 18
2 6 146
2
2 14 18
2
2
2
3 169
3
3 162 173 186 187
3 161 187 189
3 168 170
3
3
3
3
3 163
3 159 186
3 163
3
3
3 161 186 189
3
3 188
3
3 183
3
3 187
3
3
3
3 177
3
3
3 161 169 173 189
3 161 162 179 233
3 175
3 162 173 186 195
3 226
3
3
3
3
3 189
4 98
4 200 205
4 206 215 228 229
4
4 197
4 206
4
4
4 205
4 197 204 209 210 218 220
4 198 201 215 224 228 229 231 235
4
4
4 205
4 205 230
4
4
4
4
4 198 206
4 224
4 224
4 205
4 224
4 205 226 726
4 224
4 224
4
4 206 216 217 219 221 222 229
4 21
4 190 220 232
4
4 198 206 229
4 198 206 224 228 231
4 210 743
4 206 229
4 226
4 187
4
4 206
4
5
5
5
5
5
5
5
5
5 726
5
5
5
5
5
5
5
5
5
5
5
5
5 6
5
5
5
5 728
5 365 971
5
5
5 289 305
5
5
5
5 535
5
5
5 702
5
5 14
5 805
5 6
5
5
5
5 151 326 903
5 878
5
5
5
5
5 24 338 346
5
5 266 305 331
5
5
5
5
5
5
5 130
5
5
5
5 24
5
5
5
5 846
5 266 289 331 352
5 726
5
5 98
5
5
5
5
5
5
5 318
5
5
5 315
5
5 321
5 320
5
5
5 14 702
5 146 529 702
5 281
5 712
5
5
5 402 502
5 289 305
5
5 14
5
5
5
5
5 24 287
5 98
5
5
5
5
5
5
5 287
5
5 592
5
5
5
5 305
5
5
5
5
5
5
5
5
6
6 16 535
6
6 14
6 263
6 13 146 903
6
6 742
6 13
6 14
6 14 130
6 130
6 14 382
6
6
6 957
6
6
6 98
6 14
6
6 14 18 21 98 373
7 389 402 411 415 428 431 439 443 457 494 506 513
7
7 400 407 415 504
7 392 408 428 470 494
7
7
7 383 394 400 407 413 414 415 426 431 447 467 470 488 494
7 438 465 510 512
7 557 718
7 386 408 442 464 493
7 398 454 516
7 389 470
7 397 410 413 419 436 445 449 458 459 479 485 487 495 498 499 500 501 503 510 515
7 421 452 472 488 491 511
7 395 410 419 435 436 437 445 449 459 461 467 479 485 487 495 498 500 501 503 505 510
7 393 454 466 468 497 509 516
7 440 510
7 385 389 428 440 442 467 470 494 513
7 425 427 440 442 451 467 481 508
7 330 383 407 411 412 414 415 430 440 492
7 404 460
7 403 411 415 431 439 440 456 457 506
7
7 413 475
7 385 389 402 431 443 460 510 511
7 386 392 431 454 509
7
7 395 397 419 436 437 445 449 479 495 501 510
7 383 402 404 414 415 421 431 439 443 444 454 456 464 486 489 492 497 506
7 402 413 415 500 507
7 389 395 406 412 434 475 500
7 389 402 411 415 439 456 506
7 383 385 389 402 404 411 412 414 439 444 456 457 486 488 492 506
7
7 440 457 465 487 506 513
7 445 487
7 395 397 410 436 449 459 461 479 485 487 498 499 500 501 503 505 510 515
7 428 442 460 494
7 396 411 431 454 489 494
7 20 498 499
7
7 495 501
7 401 440 451 469 481 502 508
7 389 428 431 494 496
7 401 428 440 442 451 467 508
7 383 386 400 420 426 427 442 447 456 457 467 469 470 492 494 496 506 508
7
7 402
7 383 389 404 407 408 411 421 426 442 446 454 457 464 486 490 494 511 514
7 478
7 510
7 413 439 443 444 472 486 491 492
7 397 458 495 501 510 741
7 395 397 410 419 440 445 449 458 459 479 485 487 495 500 501 503 505 510
7 397 410 487 495 501
7 390 452 465 472 491 512
7 383 404 411 414 415 434 443 444 450 456 484 486 489 492 499 504 506
7 399 400 401 402 404 417 425 427 436 442 451 467 481 486 488 493 497 502 506 508 510
7 493 496 499 510
7 392 400 401 420 427 428 431 440 447 454 470 471 481 508
7 383 407 411 434 439 444 446 456 457 486 489 492
7 411 415 434 439 443 456 489
7 395 397 410 418 436 449 479 487 495 501
7 431 443
7 389 428 442 467 494
7 511
7 395 397 410 419 436 445 459 479 485 487 495 499 501 503
7 439
7 401 425 427 440 498
7 396 438 465 512
7
7 393 398 408 411 421 431 442 466 514
7 510
7 404 411 414 415 428 439 443 444 486 489 497
7 383 404 415 417 428 431 443 472 488 491 492 506 514 741
7 395 435 436 495
7 395 397 419 436 449 479 485 495 501 510
7 403 407 420 478 488 492 497 501
7 397 419 479 485 495
7 494
7
7 392 411 431 506 511
7 390 417 438 452 472 491
7 398 454 516
7 389 397 400 401 427 428 440 447 508
7 398 516
7 425 428 502
7 386 389 394 400 428 442 494
7 442
7 396 434 438 457 465 489 506 511 512 726
7 474 483 510 515
7 473 483 515
7 406 413 500
7
7
7 432 460 510
7 395 397 410 419 436 445 449 459 461 485 487 495 500 501 503 505 510
7
7 401 425 440 442
7
7 473 474 510 515
7 439
7 395 397 419 436 449 459 461 479 505 510
7 411 415 431 434 439 440 443 456
7 395 397 417 418 419 436 437 445 449 479 492 495 500 513
7 389 396 415 440 457 460 506
7 411 421 439 443 444 456 472 491
7 431
7 396 434 438 457 465 489 506 511 512 726
7 402 411 415 428 434 439 443 457 460 487 494 506
7 392 440 441 496 510
7 383 386 389 400 420 421 426 428 431 447 462 470 492 496 506 511
7 395 397 410 424 435 436 437 445 449 458 459 461 479 487 500 501 503 504 505 510
7 426 428 441 493 494 509 510 511
7 398 411 440 456 460 502 511 516
7 395 397 419 422 451 500
7 395 419 422 439 441 449
7 395 397 412 413 419 436 475 479 487 495 498 501 510 513
7 395 397 410 419 424 435 436 437 445 449 459 460 479 495 500 503 726
7 330 425 440 469 497
7 395 397 419 436 449 479 495 501 510
7 385 439 495
7 397 419 436 479 485 495
7 383 404 411 414 415 417 428 439 440 457 464 472 488 491 492 494 514
7 412
7 401 425 427 428 440 442 467
7 398 408 496
7 390 395 397 399 407 410 419 433 435 436 440 441 455 459 473 478 479 483 485 493 495 496 500 503
7 396 407 431 448 464 472 491 494 496 497
7 390 438 452 472 491
7 383 400 417 487 500
7 431 454 457 506
7 395 419 473 474 483
7 393 398 466 468 497
8 527
8
8 527
8
8
8
8
8
8
8
8 517 519 543 547 552 554 571 580
8
8 325
8 565
8 21 537 555 565 571 582
8
8 569 571
8
8 270 362 915 928
8
8 531 539 560 571 583
8
8 537 543 560 565 569 571 583
8 543 571 583
8
8
8 527 539 540 560 571
8
8
8
8 527
8
8
8
8 565 571
8 527
8
8 527
8 531 565 573 582
8
8 391
8
8
8 537 539 543 571 583
8
8
8
8
8 530 531 539 551 555 569 573 582
8
8
8
8 533 539 565 571 583
8
8 527 531 533 537 539 540 543 551 560 569 582 583
8
8 555 565
8
8
8
8
8
8
8 527
8
8 531 555 565 571
8 537 539 540 560 569 571
8
9
9 612 635
9
9
9
9
9 598
9 348 600 755
9
9
9 632 644
9
9
9 591 724
9
9 592
9
9 726
9
9
9
9
9 617 630 644
9
9
9
9
9 586 632 635
9
9
9
9 646
9 607 632
9
9 632
9
9
9
9
9 73
9
9
9
9
9
9 607 632
9
9 595 612 617 619 630 637
9
9
9 586 612
9
9 632
9
9
9
9
9
9
9 595 607
9
9 616
10 654 662 663 666 673 680
10
10
10 651 667
10 650
10
10 662 671 675
10 647 662 666 673
10
10
10
10
10
10
10
10 647 653 654 663 666 673 680
10 647 662 666 673
10
10
10 647 654 662 663 673 680
10 650 673
10 726
10 676 681
10
10 653
10
10 647 654 662 663 666 667 680
10
10 653
10 669 681
10
10
10
10 647 662 666 673
10 669 676
11
11
11
11
11 749
11
11
11 14 18 946
11
11
11
11
11
11
11
11
11
11
11 63
11
11 273 324 325 736
11
11
11
11
11
11 740 758
11
11 726
11
11 327 751
11
11
11 18
11
11
11 391
11
11 726
11 14
11
11
11 598
11
11 53 89 220 245 306 472 491 501 602 668 710 720 741 762 765 771 796
11
11 262 793
11
11
11
11
11 130
11
11 742
11 702
11 14 18
11
11
11 708
11 20 435 457 726
11 368 735 750 752 770 831
11 230
11
11
11 36
11
11
11 686
11 742
11 712
11 742
11
11
11 106 592 756
11 755
11
11 708
11
11
11
11 726
11
11
11 726
11
11
11
11
11 742
11 726
11
11
11
11
12
12
12 794 814 819
12
12 781 798 800 815
12 780 815
12
12
12
12
12 801
12
12 798 800
12
12 792 794 814
12
12 790 814
12 728 805
12 778 790 797 814
12
12 726
12 794
12 780 788 815
12 819
12 780 788
12 786
12
12 814
12
12 276 793
12
12
12
12
12
12
12
12
12 778 790 792 794 803 817
12 780 781 798
12
12 814
12
12 778 799
12
12
12
13
13 113
13
13
13 14 18
13
13
13 21
13 742
13
13
13
13
13
13
13
13
13
13 18
13
13 14 18
13
13
13 14 304
13
13
13
13
13
13
13
13
13
13
13
13
13
13
13
13
13
13
13
13
13
13
13
13 18
13
13
13
13 14 130
13
13
13
13 282
13
13
13 14 18
13
13 14 114
13
13
13
13
13 114
13
13
13
13
13
13 14 98
13 896
13 18 98 895
13
13
14
14
14 18
14 18
14 98 130 281 366
14
14
14
14
14 18
14
14
14
14
14
14
14 18 535
14
14
14 18
14 18
14 18
14
14
14 18
14
14 18
14 18
14
14 535
14
14 18
14 18
14
14 122
14
14
14
14
14
14 18
14 18
14 18
14
14
14
14
14 130 689
14
14
14
14 146
14 18
14
14
14
14 18
14
14 376
14
14
14 18 20
14 18
14
14
14 18
14 16 18
14
14
14 18
14 18
14 18 98
14 263
14 18
14 18
14
14
14 18 98
14
14 18
14
14
14
14
14
14
14
14
14
14
14 18
14 18
14
14
14
14
14
14
14 41 88
14 18
14
